NAME : Unnamed.769.tour
COMMENT : Length = 769
COMMENT : Found by LKH [Keld Helsgaun] Mon Jan 12 15:16:49 2015
TYPE : TOUR
DIMENSION : 92
TOUR_SECTION
1
24
46
15
34
69
82
78
85
79
75
83
41
35
56
42
10
23
48
14
19
52
18
3
40
38
66
68
32
27
65
13
72
9
50
37
26
21
63
6
67
44
4
45
22
57
20
29
62
7
5
61
36
28
64
25
55
77
86
81
74
90
84
88
73
59
8
53
33
30
11
58
71
39
89
80
87
91
76
12
49
54
60
47
51
92
31
16
17
2
70
43
-1
EOF
